55
1 0 5
2 0 1
2 1 2
3 0 2
3 1 3
3 2 3
4 0 5
4 1 4
4 2 1
4 3 1
5 0 4
5 1 2
5 2 1
5 3 2
5 4 2
6 0 3
6 1 1
6 2 1
6 3 3
6 4 4
6 5 1
7 0 4
7 1 3
7 2 3
7 3 3
7 4 2
7 5 5
7 6 2
8 0 4
8 1 3
8 2 3
8 3 4
8 4 2
8 5 2
8 6 4
8 7 2
9 0 3
9 1 1
9 2 3
9 3 2
9 4 4
9 5 3
9 6 4
9 7 2
9 8 3
10 0 3
10 1 3
10 2 4
10 3 1
10 4 1
10 5 4
10 6 1
10 7 3
10 8 1
10 9 1
11 0 5
11 1 3
11 2 5
11 3 5
11 4 2
11 5 1
11 6 5
11 7 5
11 8 5
11 9 3
11 10 4
12 0 3
12 1 5
12 2 3
12 3 1
12 4 4
12 5 4
12 6 5
12 7 2
12 8 3
12 9 2
12 10 3
12 11 5
13 0 1
13 1 4
13 2 1
13 3 4
13 4 4
13 5 3
13 6 3
13 7 3
13 8 4
13 9 5
13 10 5
13 11 1
13 12 1
14 0 4
14 1 5
14 2 3
14 3 3
14 4 1
14 5 2
14 6 5
14 7 4
14 8 5
14 9 4
14 10 5
14 11 2
14 12 2
14 13 3
15 0 1
15 1 5
15 2 1
15 3 5
15 4 4
15 5 5
15 6 4
15 7 5
15 8 4
15 9 3
15 10 4
15 11 1
15 12 4
15 13 5
15 14 2
16 0 4
16 1 2
16 2 5
16 3 4
16 4 3
16 5 3
16 6 5
16 7 5
16 8 2
16 9 4
16 10 3
16 11 3
16 12 5
16 13 4
16 14 1
16 15 4
17 0 1
17 1 5
17 2 5
17 3 2
17 4 3
17 5 5
17 6 3
17 7 5
17 8 4
17 9 3
17 10 5
17 11 1
17 12 1
17 13 3
17 14 5
17 15 4
17 16 2
18 0 5
18 1 3
18 2 5
18 3 3
18 4 4
18 5 3
18 6 4
18 7 2
18 8 2
18 9 1
18 10 4
18 11 1
18 12 3
18 13 2
18 14 3
18 15 3
18 16 2
18 17 5
19 0 1
19 1 4
19 2 5
19 3 4
19 4 1
19 5 3
19 6 2
19 7 2
19 8 4
19 9 1
19 10 1
19 11 3
19 12 5
19 13 2
19 14 5
19 15 1
19 16 4
19 17 5
19 18 5
20 0 2
20 1 2
20 2 2
20 3 4
20 4 3
20 5 1
20 6 1
20 7 5
20 8 2
20 9 4
20 10 1
20 11 4
20 12 5
20 13 5
20 14 5
20 15 1
20 16 5
20 17 3
20 18 1
20 19 3
21 0 3
21 1 1
21 2 1
21 3 2
21 4 5
21 5 3
21 6 3
21 7 3
21 8 3
21 9 2
21 10 3
21 11 2
21 12 2
21 13 1
21 14 2
21 15 4
21 16 4
21 17 1
21 18 5
21 19 1
21 20 5
22 0 1
22 1 4
22 2 3
22 3 2
22 4 4
22 5 3
22 6 5
22 7 5
22 8 3
22 9 2
22 10 3
22 11 4
22 12 4
22 13 4
22 14 5
22 15 5
22 16 3
22 17 4
22 18 3
22 19 4
22 20 2
22 21 2
23 0 5
23 1 5
23 2 5
23 3 4
23 4 5
23 5 1
23 6 1
23 7 5
23 8 5
23 9 4
23 10 3
23 11 1
23 12 5
23 13 2
23 14 2
23 15 2
23 16 5
23 17 1
23 18 5
23 19 4
23 20 2
23 21 4
23 22 3
24 0 4
24 1 2
24 2 4
24 3 3
24 4 5
24 5 3
24 6 4
24 7 4
24 8 1
24 9 1
24 10 4
24 11 3
24 12 3
24 13 3
24 14 4
24 15 1
24 16 2
24 17 1
24 18 1
24 19 1
24 20 2
24 21 4
24 22 1
24 23 1
25 0 3
25 1 4
25 2 5
25 3 1
25 4 2
25 5 4
25 6 2
25 7 5
25 8 2
25 9 1
25 10 4
25 11 3
25 12 4
25 13 3
25 14 2
25 15 3
25 16 3
25 17 5
25 18 3
25 19 1
25 20 2
25 21 4
25 22 4
25 23 1
25 24 5
26 0 4
26 1 2
26 2 1
26 3 4
26 4 4
26 5 1
26 6 5
26 7 3
26 8 5
26 9 4
26 10 1
26 11 3
26 12 5
26 13 2
26 14 5
26 15 3
26 16 5
26 17 2
26 18 5
26 19 4
26 20 5
26 21 1
26 22 4
26 23 2
26 24 5
26 25 5
27 0 4
27 1 1
27 2 5
27 3 1
27 4 4
27 5 3
27 6 3
27 7 5
27 8 4
27 9 4
27 10 3
27 11 1
27 12 1
27 13 1
27 14 2
27 15 3
27 16 5
27 17 4
27 18 4
27 19 2
27 20 5
27 21 3
27 22 3
27 23 5
27 24 3
27 25 4
27 26 2
28 0 5
28 1 3
28 2 4
28 3 2
28 4 3
28 5 4
28 6 5
28 7 4
28 8 5
28 9 5
28 10 5
28 11 2
28 12 2
28 13 4
28 14 5
28 15 2
28 16 4
28 17 2
28 18 2
28 19 4
28 20 4
28 21 3
28 22 1
28 23 2
28 24 2
28 25 2
28 26 4
28 27 4
29 0 2
29 1 5
29 2 2
29 3 3
29 4 4
29 5 2
29 6 1
29 7 2
29 8 5
29 9 3
29 10 1
29 11 2
29 12 1
29 13 1
29 14 3
29 15 4
29 16 5
29 17 4
29 18 3
29 19 3
29 20 4
29 21 3
29 22 3
29 23 3
29 24 1
29 25 1
29 26 4
29 27 4
29 28 3
30 0 4
30 1 4
30 2 3
30 3 2
30 4 4
30 5 4
30 6 5
30 7 2
30 8 5
30 9 4
30 10 3
30 11 3
30 12 3
30 13 1
30 14 2
30 15 3
30 16 2
30 17 3
30 18 4
30 19 2
30 20 5
30 21 1
30 22 4
30 23 2
30 24 3
30 25 2
30 26 5
30 27 5
30 28 3
30 29 4
31 0 5
31 1 1
31 2 2
31 3 1
31 4 5
31 5 3
31 6 3
31 7 4
31 8 1
31 9 4
31 10 1
31 11 3
31 12 2
31 13 1
31 14 3
31 15 4
31 16 2
31 17 2
31 18 4
31 19 2
31 20 2
31 21 4
31 22 4
31 23 5
31 24 3
31 25 4
31 26 5
31 27 1
31 28 2
31 29 3
31 30 2
32 0 4
32 1 1
32 2 4
32 3 1
32 4 2
32 5 1
32 6 1
32 7 4
32 8 2
32 9 1
32 10 5
32 11 2
32 12 3
32 13 5
32 14 5
32 15 2
32 16 3
32 17 2
32 18 5
32 19 5
32 20 3
32 21 2
32 22 4
32 23 5
32 24 3
32 25 2
32 26 1
32 27 5
32 28 4
32 29 4
32 30 3
32 31 4
33 0 1
33 1 4
33 2 5
33 3 2
33 4 3
33 5 3
33 6 3
33 7 3
33 8 4
33 9 4
33 10 5
33 11 3
33 12 1
33 13 5
33 14 2
33 15 2
33 16 5
33 17 1
33 18 2
33 19 3
33 20 3
33 21 1
33 22 3
33 23 1
33 24 1
33 25 2
33 26 5
33 27 3
33 28 5
33 29 3
33 30 3
33 31 5
33 32 1
34 0 5
34 1 3
34 2 4
34 3 4
34 4 5
34 5 1
34 6 3
34 7 1
34 8 4
34 9 5
34 10 5
34 11 1
34 12 2
34 13 3
34 14 3
34 15 5
34 16 1
34 17 4
34 18 3
34 19 3
34 20 4
34 21 5
34 22 4
34 23 1
34 24 1
34 25 5
34 26 2
34 27 3
34 28 5
34 29 3
34 30 4
34 31 5
34 32 3
34 33 3
35 0 1
35 1 1
35 2 1
35 3 5
35 4 3
35 5 3
35 6 1
35 7 5
35 8 2
35 9 4
35 10 4
35 11 5
35 12 1
35 13 1
35 14 3
35 15 5
35 16 5
35 17 5
35 18 3
35 19 3
35 20 4
35 21 3
35 22 1
35 23 2
35 24 4
35 25 5
35 26 1
35 27 5
35 28 3
35 29 4
35 30 1
35 31 5
35 32 2
35 33 5
35 34 2
36 0 3
36 1 4
36 2 1
36 3 5
36 4 1
36 5 2
36 6 5
36 7 1
36 8 2
36 9 4
36 10 1
36 11 3
36 12 1
36 13 1
36 14 5
36 15 3
36 16 1
36 17 1
36 18 1
36 19 1
36 20 1
36 21 3
36 22 4
36 23 5
36 24 3
36 25 3
36 26 3
36 27 4
36 28 5
36 29 2
36 30 4
36 31 4
36 32 3
36 33 4
36 34 3
36 35 4
37 0 3
37 1 4
37 2 4
37 3 5
37 4 5
37 5 2
37 6 2
37 7 4
37 8 2
37 9 2
37 10 3
37 11 2
37 12 4
37 13 1
37 14 3
37 15 2
37 16 5
37 17 4
37 18 3
37 19 4
37 20 3
37 21 5
37 22 5
37 23 5
37 24 5
37 25 3
37 26 1
37 27 4
37 28 4
37 29 5
37 30 3
37 31 2
37 32 1
37 33 5
37 34 4
37 35 1
37 36 2
38 0 2
38 1 3
38 2 5
38 3 4
38 4 1
38 5 4
38 6 4
38 7 2
38 8 2
38 9 5
38 10 4
38 11 4
38 12 1
38 13 5
38 14 1
38 15 1
38 16 5
38 17 2
38 18 5
38 19 2
38 20 1
38 21 3
38 22 1
38 23 5
38 24 1
38 25 3
38 26 2
38 27 5
38 28 5
38 29 2
38 30 1
38 31 4
38 32 2
38 33 5
38 34 3
38 35 2
38 36 3
38 37 3
39 0 2
39 1 4
39 2 1
39 3 1
39 4 2
39 5 1
39 6 1
39 7 3
39 8 2
39 9 1
39 10 1
39 11 4
39 12 5
39 13 2
39 14 5
39 15 2
39 16 5
39 17 3
39 18 3
39 19 4
39 20 3
39 21 2
39 22 4
39 23 4
39 24 1
39 25 1
39 26 3
39 27 1
39 28 3
39 29 3
39 30 5
39 31 2
39 32 3
39 33 2
39 34 1
39 35 1
39 36 1
39 37 3
39 38 4
40 0 4
40 1 5
40 2 4
40 3 3
40 4 4
40 5 5
40 6 1
40 7 2
40 8 1
40 9 4
40 10 3
40 11 4
40 12 1
40 13 2
40 14 4
40 15 1
40 16 4
40 17 3
40 18 2
40 19 5
40 20 3
40 21 4
40 22 1
40 23 3
40 24 1
40 25 2
40 26 2
40 27 5
40 28 2
40 29 4
40 30 1
40 31 4
40 32 3
40 33 4
40 34 3
40 35 2
40 36 5
40 37 1
40 38 3
40 39 1
41 0 1
41 1 4
41 2 4
41 3 2
41 4 5
41 5 4
41 6 2
41 7 4
41 8 1
41 9 1
41 10 1
41 11 3
41 12 3
41 13 4
41 14 3
41 15 3
41 16 1
41 17 4
41 18 3
41 19 5
41 20 5
41 21 1
41 22 3
41 23 1
41 24 5
41 25 1
41 26 1
41 27 5
41 28 1
41 29 1
41 30 5
41 31 5
41 32 3
41 33 2
41 34 5
41 35 5
41 36 3
41 37 1
41 38 1
41 39 4
41 40 2
42 0 2
42 1 2
42 2 1
42 3 5
42 4 4
42 5 4
42 6 3
42 7 5
42 8 4
42 9 3
42 10 4
42 11 4
42 12 1
42 13 3
42 14 5
42 15 5
42 16 4
42 17 4
42 18 3
42 19 1
42 20 5
42 21 4
42 22 2
42 23 4
42 24 5
42 25 1
42 26 3
42 27 3
42 28 1
42 29 2
42 30 2
42 31 1
42 32 3
42 33 5
42 34 1
42 35 2
42 36 4
42 37 4
42 38 2
42 39 1
42 40 3
42 41 3
43 0 3
43 1 3
43 2 2
43 3 5
43 4 4
43 5 5
43 6 2
43 7 2
43 8 1
43 9 2
43 10 5
43 11 5
43 12 3
43 13 4
43 14 3
43 15 1
43 16 2
43 17 1
43 18 1
43 19 5
43 20 2
43 21 2
43 22 2
43 23 2
43 24 5
43 25 1
43 26 2
43 27 2
43 28 5
43 29 3
43 30 4
43 31 4
43 32 5
43 33 1
43 34 4
43 35 4
43 36 2
43 37 1
43 38 4
43 39 4
43 40 1
43 41 4
43 42 4
44 0 5
44 1 1
44 2 3
44 3 3
44 4 3
44 5 3
44 6 5
44 7 4
44 8 3
44 9 5
44 10 4
44 11 4
44 12 4
44 13 4
44 14 3
44 15 5
44 16 5
44 17 3
44 18 5
44 19 2
44 20 2
44 21 1
44 22 4
44 23 5
44 24 1
44 25 2
44 26 1
44 27 4
44 28 2
44 29 2
44 30 4
44 31 2
44 32 1
44 33 2
44 34 1
44 35 4
44 36 1
44 37 3
44 38 1
44 39 2
44 40 1
44 41 5
44 42 1
44 43 4
45 0 2
45 1 5
45 2 2
45 3 2
45 4 4
45 5 5
45 6 3
45 7 5
45 8 5
45 9 2
45 10 4
45 11 4
45 12 3
45 13 5
45 14 2
45 15 5
45 16 5
45 17 4
45 18 3
45 19 1
45 20 4
45 21 1
45 22 1
45 23 3
45 24 2
45 25 4
45 26 5
45 27 1
45 28 3
45 29 5
45 30 3
45 31 3
45 32 2
45 33 3
45 34 5
45 35 3
45 36 5
45 37 3
45 38 3
45 39 3
45 40 2
45 41 4
45 42 3
45 43 3
45 44 1
46 0 4
46 1 2
46 2 1
46 3 3
46 4 2
46 5 2
46 6 5
46 7 1
46 8 3
46 9 1
46 10 3
46 11 3
46 12 5
46 13 2
46 14 1
46 15 5
46 16 4
46 17 2
46 18 3
46 19 3
46 20 4
46 21 3
46 22 3
46 23 1
46 24 4
46 25 1
46 26 1
46 27 5
46 28 3
46 29 3
46 30 2
46 31 4
46 32 5
46 33 5
46 34 5
46 35 3
46 36 5
46 37 1
46 38 3
46 39 4
46 40 2
46 41 1
46 42 3
46 43 5
46 44 2
46 45 2
47 0 4
47 1 5
47 2 4
47 3 3
47 4 1
47 5 1
47 6 3
47 7 4
47 8 3
47 9 5
47 10 5
47 11 5
47 12 4
47 13 4
47 14 2
47 15 3
47 16 5
47 17 4
47 18 2
47 19 4
47 20 2
47 21 5
47 22 5
47 23 4
47 24 4
47 25 2
47 26 2
47 27 1
47 28 2
47 29 4
47 30 4
47 31 4
47 32 3
47 33 3
47 34 5
47 35 1
47 36 4
47 37 4
47 38 5
47 39 2
47 40 5
47 41 3
47 42 5
47 43 2
47 44 2
47 45 1
47 46 2
48 0 3
48 1 5
48 2 1
48 3 5
48 4 4
48 5 3
48 6 4
48 7 2
48 8 2
48 9 2
48 10 5
48 11 1
48 12 1
48 13 2
48 14 5
48 15 5
48 16 2
48 17 4
48 18 4
48 19 5
48 20 2
48 21 3
48 22 2
48 23 2
48 24 3
48 25 5
48 26 3
48 27 1
48 28 4
48 29 1
48 30 4
48 31 2
48 32 1
48 33 1
48 34 3
48 35 3
48 36 3
48 37 1
48 38 5
48 39 1
48 40 2
48 41 4
48 42 5
48 43 5
48 44 2
48 45 5
48 46 4
48 47 3
49 0 2
49 1 4
49 2 5
49 3 3
49 4 5
49 5 1
49 6 3
49 7 5
49 8 4
49 9 2
49 10 5
49 11 5
49 12 1
49 13 2
49 14 1
49 15 3
49 16 3
49 17 1
49 18 5
49 19 3
49 20 5
49 21 1
49 22 5
49 23 5
49 24 5
49 25 1
49 26 1
49 27 5
49 28 5
49 29 3
49 30 1
49 31 3
49 32 3
49 33 5
49 34 2
49 35 2
49 36 4
49 37 2
49 38 5
49 39 3
49 40 2
49 41 4
49 42 4
49 43 1
49 44 1
49 45 5
49 46 3
49 47 3
49 48 4
50 0 5
50 1 2
50 2 3
50 3 2
50 4 2
50 5 3
50 6 4
50 7 5
50 8 3
50 9 1
50 10 2
50 11 4
50 12 1
50 13 1
50 14 3
50 15 4
50 16 1
50 17 1
50 18 1
50 19 2
50 20 1
50 21 3
50 22 5
50 23 4
50 24 4
50 25 1
50 26 5
50 27 2
50 28 5
50 29 1
50 30 4
50 31 5
50 32 4
50 33 3
50 34 3
50 35 5
50 36 3
50 37 2
50 38 4
50 39 1
50 40 5
50 41 3
50 42 3
50 43 1
50 44 4
50 45 1
50 46 2
50 47 1
50 48 2
50 49 3
51 0 2
51 1 4
51 2 5
51 3 2
51 4 1
51 5 2
51 6 1
51 7 3
51 8 5
51 9 4
51 10 4
51 11 3
51 12 1
51 13 2
51 14 5
51 15 4
51 16 3
51 17 5
51 18 5
51 19 4
51 20 3
51 21 4
51 22 5
51 23 2
51 24 3
51 25 4
51 26 1
51 27 5
51 28 3
51 29 2
51 30 1
51 31 5
51 32 4
51 33 4
51 34 4
51 35 4
51 36 1
51 37 1
51 38 5
51 39 3
51 40 3
51 41 5
51 42 2
51 43 1
51 44 4
51 45 1
51 46 5
51 47 5
51 48 1
51 49 2
51 50 2
52 0 1
52 1 1
52 2 3
52 3 5
52 4 5
52 5 3
52 6 3
52 7 3
52 8 4
52 9 3
52 10 2
52 11 1
52 12 1
52 13 5
52 14 2
52 15 4
52 16 5
52 17 4
52 18 1
52 19 5
52 20 4
52 21 5
52 22 2
52 23 4
52 24 2
52 25 2
52 26 3
52 27 2
52 28 1
52 29 5
52 30 4
52 31 1
52 32 3
52 33 3
52 34 4
52 35 5
52 36 5
52 37 3
52 38 4
52 39 4
52 40 1
52 41 2
52 42 5
52 43 2
52 44 1
52 45 2
52 46 3
52 47 2
52 48 4
52 49 4
52 50 4
52 51 1
53 0 5
53 1 2
53 2 1
53 3 1
53 4 5
53 5 3
53 6 2
53 7 4
53 8 3
53 9 1
53 10 1
53 11 2
53 12 1
53 13 1
53 14 5
53 15 4
53 16 5
53 17 3
53 18 4
53 19 3
53 20 4
53 21 5
53 22 4
53 23 2
53 24 1
53 25 1
53 26 5
53 27 4
53 28 3
53 29 1
53 30 4
53 31 4
53 32 2
53 33 2
53 34 4
53 35 2
53 36 3
53 37 2
53 38 2
53 39 1
53 40 1
53 41 5
53 42 1
53 43 3
53 44 4
53 45 1
53 46 3
53 47 5
53 48 1
53 49 3
53 50 1
53 51 1
53 52 3
54 0 1
54 1 3
54 2 1
54 3 5
54 4 4
54 5 4
54 6 1
54 7 5
54 8 3
54 9 4
54 10 3
54 11 3
54 12 4
54 13 4
54 14 3
54 15 2
54 16 3
54 17 1
54 18 2
54 19 1
54 20 5
54 21 3
54 22 1
54 23 4
54 24 2
54 25 1
54 26 2
54 27 2
54 28 1
54 29 5
54 30 5
54 31 5
54 32 3
54 33 5
54 34 1
54 35 5
54 36 3
54 37 1
54 38 1
54 39 5
54 40 3
54 41 3
54 42 3
54 43 1
54 44 2
54 45 5
54 46 2
54 47 1
54 48 2
54 49 1
54 50 3
54 51 3
54 52 3
54 53 5
